40	100	100	100
90	14	86
71	49	95
83	47	90
68	44	93
87	27	76
82	11	77
75	31	72
66	43	73
74	31	70
73	18	89
83	25	79
98	35	77
76	24	73
80	47	70
86	20	82
69	31	93
89	45	74
89	22	94
82	16	98
82	5	71
77	20	68
94	3	95
96	26	89
85	37	72
81	11	81
82	46	76
87	34	86
86	6	81
79	2	99
75	14	96
93	31	97
88	19	75
72	2	91
67	26	79
68	1	99
85	43	67
95	3	96
88	34	76
76	23	82
93	32	72
